Gurobi Optimizer version 10.0.3 build v10.0.3rc0 (win64)

CPU model: 13th Gen Intel(R) Core(TM) i7-13700T, instruction set [SSE2|AVX|AVX2]
Thread count: 16 physical cores, 24 logical processors, using up to 24 threads

Optimize a model with 2492915 rows, 320649 columns and 5120385 nonzeros
Model fingerprint: 0x50f9ad47
Variable types: 0 continuous, 320649 integer (34680 binary)
Coefficient statistics:
  Matrix range     [1e+00, 6e+02]
  Objective range  [7e+00, 3e+02]
  Bounds range     [1e+00, 1e+00]
  RHS range        [1e+00, 6e+02]
Presolve removed 50667 rows and 248957 columns (presolve time = 5s) ...
Presolve removed 50669 rows and 248958 columns (presolve time = 11s) ...
Presolve removed 82529 rows and 248965 columns (presolve time = 16s) ...
Presolve removed 82550 rows and 248986 columns (presolve time = 20s) ...
Presolve removed 82550 rows and 248986 columns (presolve time = 25s) ...
Presolve removed 82550 rows and 248986 columns (presolve time = 30s) ...
Presolve removed 82550 rows and 248986 columns (presolve time = 35s) ...
Presolve removed 82550 rows and 248986 columns (presolve time = 40s) ...
Presolve removed 82550 rows and 248986 columns (presolve time = 45s) ...
Presolve removed 82550 rows and 248986 columns (presolve time = 50s) ...
Presolve removed 82550 rows and 248986 columns (presolve time = 55s) ...
Presolve removed 82550 rows and 248986 columns (presolve time = 60s) ...
Presolve removed 82550 rows and 248986 columns (presolve time = 65s) ...
Presolve removed 82550 rows and 257288 columns (presolve time = 70s) ...
Presolve removed 82925 rows and 257288 columns (presolve time = 75s) ...
Presolve removed 252868 rows and 257288 columns (presolve time = 80s) ...
Presolve removed 362528 rows and 257288 columns (presolve time = 86s) ...
Presolve removed 362579 rows and 257348 columns (presolve time = 90s) ...
Presolve removed 362579 rows and 257348 columns (presolve time = 95s) ...
Presolve removed 362607 rows and 257348 columns (presolve time = 100s) ...
Presolve removed 362607 rows and 257348 columns (presolve time = 105s) ...
Presolve removed 362607 rows and 257348 columns (presolve time = 110s) ...
Presolve removed 362607 rows and 257348 columns (presolve time = 115s) ...
Presolve removed 362607 rows and 257348 columns (presolve time = 120s) ...
Presolve removed 362607 rows and 257348 columns (presolve time = 125s) ...
Presolve removed 362607 rows and 257348 columns (presolve time = 130s) ...
Presolve removed 460850 rows and 263826 columns (presolve time = 135s) ...
Presolve removed 640994 rows and 263830 columns (presolve time = 141s) ...
Presolve removed 642851 rows and 265696 columns (presolve time = 145s) ...
Presolve removed 642913 rows and 265696 columns (presolve time = 150s) ...
Presolve removed 642913 rows and 265696 columns (presolve time = 155s) ...
Presolve removed 642913 rows and 265696 columns (presolve time = 160s) ...
Presolve removed 642913 rows and 265696 columns (presolve time = 165s) ...
Presolve removed 642913 rows and 265696 columns (presolve time = 170s) ...
Presolve removed 642913 rows and 265696 columns (presolve time = 175s) ...
Presolve removed 726223 rows and 271674 columns (presolve time = 180s) ...
Presolve removed 922885 rows and 271676 columns (presolve time = 187s) ...
Presolve removed 925218 rows and 273977 columns (presolve time = 190s) ...
Presolve removed 925753 rows and 273977 columns (presolve time = 195s) ...
Presolve removed 925753 rows and 273977 columns (presolve time = 200s) ...
Presolve removed 925753 rows and 273977 columns (presolve time = 205s) ...
Presolve removed 925753 rows and 273977 columns (presolve time = 210s) ...
Presolve removed 925753 rows and 273977 columns (presolve time = 215s) ...
Presolve removed 931464 rows and 273977 columns (presolve time = 220s) ...
Presolve removed 1067929 rows and 273980 columns (presolve time = 225s) ...
Presolve removed 1073949 rows and 280000 columns (presolve time = 230s) ...
Presolve removed 1078284 rows and 281851 columns (presolve time = 235s) ...
Presolve removed 1078284 rows and 281851 columns (presolve time = 240s) ...
Presolve removed 1078284 rows and 281851 columns (presolve time = 245s) ...
Presolve removed 1079667 rows and 281851 columns (presolve time = 250s) ...
Presolve removed 1079878 rows and 281851 columns (presolve time = 255s) ...
Presolve removed 1079878 rows and 281851 columns (presolve time = 260s) ...
Presolve removed 1180852 rows and 281851 columns (presolve time = 265s) ...
Presolve removed 1193324 rows and 281851 columns (presolve time = 277s) ...
Presolve removed 1208870 rows and 281851 columns (presolve time = 317s) ...
Presolve removed 1209678 rows and 282211 columns (presolve time = 320s) ...
Presolve removed 1209943 rows and 282211 columns (presolve time = 326s) ...
Presolve removed 1349341 rows and 282211 columns (presolve time = 330s) ...
Presolve removed 1349341 rows and 282211 columns (presolve time = 335s) ...
Presolve removed 1349341 rows and 282211 columns (presolve time = 344s) ...
Presolve removed 1357130 rows and 290000 columns (presolve time = 346s) ...
Presolve removed 1360270 rows and 290022 columns (presolve time = 351s) ...
Presolve removed 1360270 rows and 290022 columns (presolve time = 355s) ...
Presolve removed 1360270 rows and 290022 columns (presolve time = 360s) ...
Presolve removed 1361738 rows and 290022 columns (presolve time = 365s) ...
Presolve removed 1361967 rows and 290022 columns (presolve time = 370s) ...
Presolve removed 1362220 rows and 290022 columns (presolve time = 375s) ...
Presolve removed 1362220 rows and 290022 columns (presolve time = 380s) ...
Presolve removed 1362220 rows and 290022 columns (presolve time = 385s) ...
Presolve removed 1362220 rows and 290022 columns (presolve time = 391s) ...
Presolve removed 1428323 rows and 290022 columns (presolve time = 395s) ...
Presolve removed 1490873 rows and 290399 columns (presolve time = 401s) ...
Presolve removed 1630714 rows and 290399 columns (presolve time = 406s) ...
Presolve removed 1630714 rows and 290399 columns (presolve time = 410s) ...
Presolve removed 1630714 rows and 290399 columns (presolve time = 415s) ...
Presolve removed 1638473 rows and 298158 columns (presolve time = 421s) ...
Presolve removed 1641976 rows and 298158 columns (presolve time = 426s) ...
Presolve removed 1641976 rows and 298158 columns (presolve time = 430s) ...
Presolve removed 1641976 rows and 298158 columns (presolve time = 436s) ...
Presolve removed 1641976 rows and 298158 columns (presolve time = 441s) ...
Presolve removed 1641976 rows and 298158 columns (presolve time = 445s) ...
Presolve removed 1644060 rows and 298158 columns (presolve time = 450s) ...
Presolve removed 1644422 rows and 298158 columns (presolve time = 455s) ...
Presolve removed 1644422 rows and 298158 columns (presolve time = 461s) ...
Presolve removed 1644422 rows and 298158 columns (presolve time = 465s) ...
Presolve removed 1685376 rows and 298158 columns (presolve time = 470s) ...
Presolve removed 1689759 rows and 298158 columns (presolve time = 481s) ...
Presolve removed 1695396 rows and 298158 columns (presolve time = 496s) ...
Presolve removed 1702818 rows and 298158 columns (presolve time = 518s) ...
Presolve removed 1710493 rows and 298158 columns (presolve time = 536s) ...
Presolve removed 1718584 rows and 298158 columns (presolve time = 555s) ...
Presolve removed 1726813 rows and 298158 columns (presolve time = 574s) ...
Presolve removed 1735566 rows and 298158 columns (presolve time = 585s) ...
Presolve removed 1743496 rows and 298158 columns (presolve time = 585s) ...
Presolve removed 1923247 rows and 306234 columns (presolve time = 590s) ...
Presolve removed 1926175 rows and 306234 columns (presolve time = 595s) ...
Presolve removed 1971038 rows and 306234 columns (presolve time = 604s) ...
Presolve removed 1976715 rows and 306234 columns (presolve time = 612s) ...
Presolve removed 1984130 rows and 306234 columns (presolve time = 623s) ...
Presolve removed 1991835 rows and 306234 columns (presolve time = 634s) ...
Presolve removed 1999942 rows and 306234 columns (presolve time = 645s) ...
Presolve removed 2008226 rows and 306234 columns (presolve time = 657s) ...
Presolve removed 2017005 rows and 306234 columns (presolve time = 670s) ...
Presolve removed 2024690 rows and 306234 columns (presolve time = 681s) ...
Presolve removed 2031300 rows and 306234 columns (presolve time = 691s) ...
Presolve removed 2043590 rows and 306234 columns (presolve time = 709s) ...
Presolve removed 2051616 rows and 306234 columns (presolve time = 721s) ...
Presolve removed 2192741 rows and 306636 columns (presolve time = 725s) ...
Presolve removed 2192741 rows and 306636 columns (presolve time = 731s) ...
Presolve removed 2203942 rows and 314237 columns (presolve time = 735s) ...
Presolve removed 2203942 rows and 314237 columns (presolve time = 740s) ...
Presolve removed 2251953 rows and 314237 columns (presolve time = 750s) ...
Presolve removed 2257641 rows and 314237 columns (presolve time = 758s) ...
Presolve removed 2265049 rows and 314237 columns (presolve time = 768s) ...
Presolve removed 2272765 rows and 314237 columns (presolve time = 779s) ...
Presolve removed 2280733 rows and 314237 columns (presolve time = 791s) ...
Presolve removed 2288994 rows and 314237 columns (presolve time = 803s) ...
Presolve removed 2297776 rows and 314237 columns (presolve time = 816s) ...
Presolve removed 2305141 rows and 314237 columns (presolve time = 827s) ...
Presolve removed 2318168 rows and 314237 columns (presolve time = 847s) ...
Presolve removed 2331140 rows and 314237 columns (presolve time = 867s) ...
Presolve removed 2415090 rows and 314661 columns (presolve time = 870s) ...
Presolve removed 2445739 rows and 318863 columns (presolve time = 880s) ...
Presolve removed 2453181 rows and 318863 columns (presolve time = 889s) ...
Presolve removed 2461346 rows and 318863 columns (presolve time = 899s) ...
Presolve removed 2470107 rows and 318863 columns (presolve time = 909s) ...
Presolve removed 2492896 rows and 320488 columns (presolve time = 910s) ...
Presolve removed 2492896 rows and 320488 columns
Presolve time: 910.20s
Presolved: 19 rows, 161 columns, 371 nonzeros
Variable types: 0 continuous, 161 integer (85 binary)
Found heuristic solution: objective 55256.785000

Root simplex log...

Iteration    Objective       Primal Inf.    Dual Inf.      Time
       0    6.9815410e+04   6.200000e+01   0.000000e+00    912s
      15    6.9815410e+04   0.000000e+00   0.000000e+00    912s

Root relaxation: objective 6.981541e+04, 15 iterations, 0.00 seconds (0.00 work units)

    Nodes    |    Current Node    |     Objective Bounds      |     Work
 Expl Unexpl |  Obj  Depth IntInf | Incumbent    BestBd   Gap | It/Node Time

*    0     0               0    69815.410000 69815.4100  0.00%     -  912s

Explored 1 nodes (15 simplex iterations) in 912.56 seconds (40.10 work units)
Thread count was 24 (of 24 available processors)

Solution count 2: 69815.4 55256.8 

Optimal solution found (tolerance 1.00e-04)
Best objective 6.981541000000e+04, best bound 6.981541000000e+04, gap 0.0000%
Valor da função objetivo:  69815.40999999999

Tempo para criar o modelo:  77.11345863342285
